<number of tasks>
20


<number of equipment>
5


<cycle time>
1000


<investment costs>
1,11026
2,20857
3,6926
4,25341
5,9802


<task times>
1,153,107,-1,-1,155
2,204,157,-1,-1,219
3,148,109,-1,-1,204
4,185,102,-1,-1,213
5,213,117,-1,-1,222
6,162,110,-1,-1,161
7,131,-1,217,48,-1
8,231,255,-1,-1,222
9,177,-1,229,102,-1
10,203,-1,154,80,-1
11,-1,-1,-1,132,227
12,217,-1,242,98,-1
13,-1,-1,-1,121,226
14,172,-1,247,105,-1
15,239,123,-1,-1,234
16,181,-1,132,70,-1
17,189,-1,133,96,-1
18,-1,-1,-1,64,138
19,176,94,-1,-1,148
20,128,81,-1,-1,212


<precedence relations>
1,8
2,8
3,8
4,8
5,10
6,9
6,11
7,12
8,13
8,14
8,15
8,16
8,17
17,18
18,19
18,20


<task types>
1,3
2,3
3,3
4,3
5,3
6,3
7,2
8,3
9,2
10,2
11,1
12,2
13,1
14,2
15,3
16,2
17,2
18,1
19,3
20,3


<line depot>
1,1
2,0
3,3
4,0
5,4


<processing costs>
1,14400
2,7200
3,7200
4,14400
5,14400


<saving costs>
1,1102
2,2085
3,692
4,2534
5,980


<end>
